c SAT Generator for power-law distributed variable frequencies
c -g u -v 20 -c 91 -k 3 -p 2.750000 -b 3.200000 -f /home/schmidt/Devel/ni-kop-sat/data/ensemble/ruf20-91/ruf20-91-849 -u 1 -U 1 -s 1656179462
p cnf 20 91
-2 -3 12 0
-8 -17 -18 0
-6 -8 -20 0
-7 14 -18 0
-1 5 -11 0
-3 11 -18 0
-1 -10 -18 0
7 12 16 0
6 -10 -16 0
9 -16 18 0
-2 13 19 0
1 2 6 0
12 13 14 0
2 3 4 0
-1 -15 16 0
-2 -5 11 0
2 3 -12 0
-9 -15 -19 0
-5 -9 20 0
12 16 19 0
-12 14 18 0
2 17 19 0
11 16 -17 0
-5 -10 17 0
5 9 20 0
-1 -2 7 0
-2 -3 -13 0
-12 13 -19 0
1 -11 -19 0
3 -19 -20 0
2 18 -20 0
11 -13 -19 0
6 7 -20 0
-1 3 -13 0
-2 5 6 0
-10 -17 -18 0
-11 14 16 0
-4 -11 14 0
10 -13 15 0
-1 -2 11 0
-4 -7 -12 0
-16 -19 -20 0
-1 2 -14 0
-3 -8 -15 0
7 11 13 0
4 -9 18 0
13 -16 17 0
-4 -12 -15 0
-3 7 -11 0
-6 -9 11 0
-5 -7 17 0
2 -10 11 0
-2 11 -14 0
-2 17 -20 0
2 -5 -14 0
-9 -11 15 0
2 -6 -19 0
12 13 20 0
12 13 -17 0
-1 13 -17 0
-3 5 7 0
-3 15 20 0
-7 -10 19 0
-1 10 -18 0
-7 17 -18 0
8 11 -19 0
5 -7 12 0
3 14 -15 0
5 9 -19 0
-12 15 17 0
6 -7 9 0
-5 6 -15 0
-3 9 -12 0
-3 -10 14 0
-13 -16 -20 0
-6 -17 -20 0
6 -8 9 0
-7 -10 -13 0
1 -10 -15 0
-7 10 18 0
-12 -17 20 0
2 -14 16 0
-6 9 -17 0
3 17 -19 0
-8 -13 -18 0
-4 6 12 0
5 14 20 0
4 -6 18 0
9 -16 -19 0
-8 10 14 0
2 -10 14 0
